100
128
46
46
2
62
37
19
3
58
26
1
34
10
27
37
33
46
60
14
45
18
33
62
21
15
29
57
21
12
15
14
14
12
45
35
22
26
54
29
54
34
28
31
29
24
20
45
38
13
4
16
29
2
21
20
11
13
12
56
36
20
13
39
11
47
47
43
18
51
50
60
9
40
62
15
15
39
1
17
45
21
46
45
20
45
48
18
48
34
34
26
27
52
27
52
2
60
24
35
23
31